
Gurobi 10.0.1 (win64) logging started Thu Oct  5 12:31:58 2023

Set parameter LogFile to value "./results//log/BA_11_deadline_heurFalse.log"
Gurobi Optimizer version 10.0.1 build v10.0.1rc0 (win64)

CPU model: AMD Ryzen 7 3700X 8-Core Processor, instruction set [SSE2|AVX|AVX2]
Thread count: 8 physical cores, 16 logical processors, using up to 16 threads

Optimize a model with 295 rows, 296 columns and 1050 nonzeros
Model fingerprint: 0xc4829045
Model has 1 quadratic constraint
Variable types: 0 continuous, 296 integer (265 binary)
Coefficient statistics:
  Matrix range     [1e+00, 1e+07]
  QMatrix range    [1e+00, 1e+00]
  QLMatrix range   [1e+00, 1e+01]
  Objective range  [1e+00, 1e+00]
  Bounds range     [1e+00, 1e+00]
  RHS range        [1e+00, 3e+07]
Presolve removed 69 rows and 172 columns
Presolve time: 0.00s
Presolved: 237 rows, 134 columns, 996 nonzeros
Variable types: 0 continuous, 134 integer (93 binary)

Root relaxation: objective 0.000000e+00, 43 iterations, 0.00 seconds (0.00 work units)

    Nodes    |    Current Node    |     Objective Bounds      |     Work
 Expl Unexpl |  Obj  Depth IntInf | Incumbent    BestBd   Gap | It/Node Time

     0     0    0.00000    0    4          -    0.00000      -     -    0s
H    0     0                      59.0000000    0.00000   100%     -    0s
     0     0    0.00000    0    4   59.00000    0.00000   100%     -    0s
     0     0    0.00000    0   11   59.00000    0.00000   100%     -    0s
     0     0    0.00000    0    1   59.00000    0.00000   100%     -    0s
H    0     0                      57.0000000    0.00000   100%     -    0s
H    0     0                      56.0000000    0.00000   100%     -    0s
     0     0    0.00000    0   11   56.00000    0.00000   100%     -    0s
     0     0    0.00000    0    8   56.00000    0.00000   100%     -    0s
H    0     0                      53.0000000    0.00000   100%     -    0s
     0     0    0.00000    0    7   53.00000    0.00000   100%     -    0s
     0     0    0.00000    0    4   53.00000    0.00000   100%     -    0s
H    0     0                      52.0000000    0.00000   100%     -    0s
     0     0    0.00000    0   13   52.00000    0.00000   100%     -    0s
     0     0    4.00000    0    9   52.00000    4.00000  92.3%     -    0s
     0     0    4.00000    0   11   52.00000    4.00000  92.3%     -    0s
     0     0    4.62921    0   16   52.00000    4.62921  91.1%     -    0s
     0     0    4.71795    0   22   52.00000    4.71795  90.9%     -    0s
     0     0    4.71795    0   30   52.00000    4.71795  90.9%     -    0s
     0     0    5.39461    0   28   52.00000    5.39461  89.6%     -    0s
     0     0    5.39461    0   13   52.00000    5.39461  89.6%     -    0s
     0     2    5.39461    0   13   52.00000    5.39461  89.6%     -    0s
H   29    32                      51.0000000    7.00000  86.3%  14.5    0s
H   65    63                      50.0000000    7.00000  86.0%  11.0    0s
H   88    78                      48.0000000    7.00000  85.4%   9.7    0s
H  123    95                      44.0000000    7.00000  84.1%   8.8    0s
H  172   119                      42.0000000    7.00000  83.3%   8.6    0s
H  468   229                      41.0000000    8.00000  80.5%   9.6    0s
H  519   229                      40.0000000    8.00000  80.0%   9.5    0s
H  697   252                      35.0000000    8.00000  77.1%   7.6    0s
H15005   527                      34.0000000    8.00003  76.5%   0.9    0s

Cutting planes:
  Learned: 4
  Gomory: 1
  Implied bound: 6
  MIR: 4
  Flow cover: 5
  RLT: 1

Explored 18091 nodes (52993 simplex iterations) in 0.90 seconds (0.48 work units)
Thread count was 16 (of 16 available processors)

Solution count 10: 34 35 40 ... 52

Optimal solution found (tolerance 1.00e-04)
Best objective 3.400000000000e+01, best bound 3.400000000000e+01, gap 0.0000%
Warning: constraint name "precedence between 0,0 to 0,2 if x_[0,0,0,2,3]=0, i.e. 0,2 before 0,0" has a space
Warning: constraint name "precedence between 0,0 to 0,2 if x_[0,0,0,2,3]=0, i.e. 0,2 before 0,0" has a space
Warning: default constraint names used to write mps file
